max_width = 15;
n_blocks = 25;
width = [4, 4, 4, 2, 2, 7, 2, 5, 4, 4, 3, 2, 2, 2, 1, 5, 5, 1, 4, 2, 2, 1, 4, 3, 3];
height = [26, 12, 11, 11, 11, 10, 10, 9, 8, 8, 8, 7, 6, 6, 6, 5, 4, 4, 3, 3, 3, 3, 2, 2, 1];
